data/solutions/planning/wellformed/intermediate/weighting/wellformed_intermediate_instance23_gurobi.sol
Elapsed time: 1001.06
Nodes explored: 1287111
Nodes left: 958339
Relative gap: 0.033
Upper bound: 410686995.0
Lower bound: 410553410
C[0]=401505.0
C[1]=401477.0
C[2]=401335.0
C[3]=401327.0
C[4]=401326.0
C[5]=401326.0
C[6]=401285.0
C[7]=401240.0
C[8]=401222.0
C[9]=401183.0
y[0]=4
y[1]=0
y[2]=0
y[3]=6
y[4]=7
y[5]=3
y[6]=2
y[7]=6
y[8]=5
y[9]=2
y[10]=0
y[11]=1
y[12]=4
y[13]=1
y[14]=4
y[15]=9
y[16]=0
y[17]=8
y[18]=8
y[19]=5
y[20]=2
y[21]=8
y[22]=0
y[23]=1
y[24]=7
y[25]=3
y[26]=0
y[27]=8
y[28]=0
y[29]=6
y[30]=5
y[31]=6
y[32]=0
y[33]=0
y[34]=4
y[35]=1
y[36]=9
y[37]=1
y[38]=8
y[39]=0
y[40]=5
y[41]=8
y[42]=0
y[43]=6
y[44]=9
y[45]=9
y[46]=0
y[47]=8
y[48]=3
y[49]=5
y[50]=5
y[51]=8
y[52]=3
y[53]=0
y[54]=3
y[55]=7
y[56]=5
y[57]=3
y[58]=5
y[59]=4
y[60]=9
y[61]=8
y[62]=3
y[63]=3
y[64]=2
y[65]=4
y[66]=2
y[67]=7
y[68]=4
y[69]=9
y[70]=9
y[71]=3
y[72]=5
y[73]=0
y[74]=5
y[75]=5
y[76]=5
y[77]=6
y[78]=7
y[79]=4
y[80]=1
y[81]=3
y[82]=4
y[83]=9
y[84]=3
y[85]=4
y[86]=3
y[87]=8
y[88]=0
y[89]=8
y[90]=5
y[91]=7
y[92]=9
y[93]=2
y[94]=3
y[95]=7
y[96]=0
y[97]=6
y[98]=9
y[99]=7
y[100]=9
y[101]=9
y[102]=4
y[103]=4
y[104]=3
y[105]=6
y[106]=8
y[107]=9
y[108]=2
y[109]=6
y[110]=7
y[111]=4
y[112]=1
y[113]=9
y[114]=1
y[115]=5
y[116]=9
y[117]=2
y[118]=1
y[119]=2
y[120]=2
y[121]=5
y[122]=3
y[123]=3
y[124]=0
y[125]=2
y[126]=3
y[127]=0
y[128]=7
y[129]=7
y[130]=2
y[131]=8
y[132]=6
y[133]=8
y[134]=6
y[135]=7
y[136]=1
y[137]=6
y[138]=4
y[139]=7
y[140]=3
y[141]=1
y[142]=6
y[143]=2
y[144]=1
y[145]=0
y[146]=3
y[147]=2
y[148]=8
y[149]=7
y[150]=4
y[151]=4
y[152]=8
y[153]=8
y[154]=3
y[155]=4
y[156]=5
y[157]=3
y[158]=9
y[159]=4
y[160]=8
y[161]=9
y[162]=7
y[163]=6
y[164]=1
y[165]=2
y[166]=2
y[167]=0
y[168]=1
y[169]=4
y[170]=7
y[171]=9
y[172]=1
y[173]=1
y[174]=5
y[175]=3
y[176]=9
y[177]=6
y[178]=3
y[179]=6
y[180]=4
y[181]=5
y[182]=1
y[183]=8
y[184]=7
y[185]=0
y[186]=5
y[187]=7
y[188]=3
y[189]=1
y[190]=6
y[191]=8
y[192]=1
y[193]=4
y[194]=1
y[195]=5
y[196]=0
y[197]=3
y[198]=2
y[199]=6
y[200]=8
y[201]=8
y[202]=8
y[203]=7
y[204]=0
y[205]=8
y[206]=4
y[207]=3
y[208]=1
y[209]=2
y[210]=8
y[211]=2
y[212]=9
y[213]=3
y[214]=9
y[215]=7
y[216]=6
y[217]=3
y[218]=9
y[219]=9
y[220]=1
y[221]=8
y[222]=2
y[223]=1
y[224]=7
y[225]=5
y[226]=7
y[227]=2
y[228]=9
y[229]=9
y[230]=9
y[231]=5
y[232]=9
y[233]=6
y[234]=1
y[235]=6
y[236]=7
y[237]=2
y[238]=8
y[239]=3
y[240]=2
y[241]=2
y[242]=6
y[243]=2
y[244]=9
y[245]=5
y[246]=4
y[247]=5
y[248]=4
y[249]=4
y[250]=9
y[251]=1
y[252]=4
y[253]=9
y[254]=9
y[255]=6
y[256]=0
y[257]=2
y[258]=4
y[259]=9
y[260]=1
y[261]=7
y[262]=1
y[263]=8
y[264]=4
y[265]=1
y[266]=6
y[267]=8
y[268]=2
y[269]=5
y[270]=2
y[271]=8
y[272]=6
y[273]=6
y[274]=7
y[275]=5
y[276]=8
y[277]=9
y[278]=4
y[279]=8
y[280]=1
y[281]=8
y[282]=0
y[283]=9
y[284]=7
y[285]=1
y[286]=1
y[287]=8
y[288]=5
y[289]=9
y[290]=8
y[291]=8
y[292]=7
y[293]=3
y[294]=6
y[295]=2
y[296]=3
y[297]=9
y[298]=1
y[299]=9
y[300]=3
y[301]=3
y[302]=1
y[303]=3
y[304]=7
y[305]=8
y[306]=3
y[307]=4
y[308]=7
y[309]=2
y[310]=8
y[311]=5
y[312]=0
y[313]=2
y[314]=5
y[315]=5
y[316]=6
y[317]=6
y[318]=5
y[319]=3
y[320]=2
y[321]=2
y[322]=6
y[323]=6
y[324]=0
y[325]=8
y[326]=0
y[327]=0
y[328]=0
y[329]=1
y[330]=7
y[331]=0
y[332]=1
y[333]=1
y[334]=0
y[335]=0
y[336]=1
y[337]=0
y[338]=0
y[339]=0
y[340]=1
y[341]=0
y[342]=0
y[343]=0
y[344]=0
y[345]=7
y[346]=8
y[347]=7
y[348]=7
y[349]=1
y[350]=6
y[351]=9
y[352]=0
y[353]=8
y[354]=8
y[355]=6
y[356]=3
y[357]=3
y[358]=0
y[359]=1
y[360]=0
y[361]=0
y[362]=0
y[363]=2
y[364]=4
y[365]=8
y[366]=2
y[367]=4
y[368]=5
y[369]=1
y[370]=0
y[371]=3
y[372]=2
y[373]=2
y[374]=6
y[375]=1
y[376]=7
y[377]=3
y[378]=9
y[379]=7
y[380]=4
y[381]=1
y[382]=7
y[383]=4
y[384]=1
y[385]=5
y[386]=4
y[387]=7
y[388]=5
y[389]=7
y[390]=4
y[391]=6
y[392]=1
y[393]=5
y[394]=9
y[395]=7
y[396]=6
y[397]=1
y[398]=4
y[399]=8
