data/solutions/planning/wellformed/intermediate/weighting/wellformed_intermediate_instance23_gurobi.log

Gurobi 6.5.2 (linux64) logging started Sat Mar  3 01:34:10 2018

Changed value of parameter LogFile to data/solutions/planning/wellformed/intermediate/weighting/wellformed_intermediate_instance23_gurobi.log
   Prev: gurobi.log  Default: 
Changed value of parameter Threads to 1
   Prev: 0  Min: 0  Max: 1024  Default: 0
Optimize a model with 420 rows, 4011 columns and 8029 nonzeros
Coefficient statistics:
  Matrix range    [1e+00, 2e+04]
  Objective range [1e+00, 5e+02]
  Bounds range    [1e+00, 1e+00]
  RHS range       [1e+00, 1e+00]
Found heuristic solution: objective 8.248e+08
Presolve removed 3 rows and 3 columns
Presolve time: 0.01s
Presolved: 417 rows, 4008 columns, 8024 nonzeros
Variable types: 0 continuous, 4008 integer (4000 binary)

Root relaxation: objective 4.105530e+08, 596 iterations, 0.01 seconds

    Nodes    |    Current Node    |     Objective Bounds      |     Work
 Expl Unexpl |  Obj  Depth IntInf | Incumbent    BestBd   Gap | It/Node Time

     0     0 4.1055e+08    0   22 8.2480e+08 4.1055e+08  50.2%     -    0s
     0     0 4.1055e+08    0   29 8.2480e+08 4.1055e+08  50.2%     -    0s
     0     0 4.1055e+08    0   28 8.2480e+08 4.1055e+08  50.2%     -    0s
     0     0 4.1055e+08    0   30 8.2480e+08 4.1055e+08  50.2%     -    0s
     0     0 4.1055e+08    0   31 8.2480e+08 4.1055e+08  50.2%     -    0s
     0     0 4.1055e+08    0   31 8.2480e+08 4.1055e+08  50.2%     -    0s
     0     0 4.1055e+08    0   31 8.2480e+08 4.1055e+08  50.2%     -    0s
H    0     0                    4.159842e+08 4.1055e+08  1.31%     -    0s
     0     2 4.1055e+08    0   30 4.1598e+08 4.1055e+08  1.31%     -    0s
H   27    27                    4.158300e+08 4.1055e+08  1.27%  11.4    0s
H  469   467                    4.147784e+08 4.1055e+08  1.02%   3.3    0s
H 1221  1219                    4.146367e+08 4.1055e+08  0.98%   4.0    1s
H 1380  1378                    4.132644e+08 4.1055e+08  0.66%   4.9    1s
  2840  2251 4.1108e+08  701   10 4.1326e+08 4.1055e+08  0.66%   6.2    5s
H 4433  2687                    4.130038e+08 4.1055e+08  0.59%   5.7    6s
H 4931  2846                    4.129459e+08 4.1055e+08  0.58%   5.6    7s
H 5284  2986                    4.128594e+08 4.1055e+08  0.56%   5.5    7s
  8305  5831 4.1101e+08 1101   13 4.1286e+08 4.1055e+08  0.56%   4.8   10s
H 8554  6003                    4.126222e+08 4.1055e+08  0.50%   4.9   10s
H 9194  6615                    4.126115e+08 4.1055e+08  0.50%   4.7   10s
H11145  8461                    4.124980e+08 4.1055e+08  0.47%   5.0   13s
 13492 10679 4.1091e+08  548   13 4.1250e+08 4.1055e+08  0.47%   5.0   15s
H14621 11751                    4.121739e+08 4.1055e+08  0.39%   5.0   16s
H19056 16020                    4.121736e+08 4.1055e+08  0.39%   5.0   19s
H19133 16093                    4.121252e+08 4.1055e+08  0.38%   5.0   19s
 19526 16480 4.1067e+08  561   11 4.1213e+08 4.1055e+08  0.38%   5.0   20s
 24756 21578 4.1101e+08  392   14 4.1213e+08 4.1055e+08  0.38%   5.4   25s
H24763 21577                    4.120719e+08 4.1055e+08  0.37%   5.4   25s
 28301 24706 4.1176e+08 1241   13 4.1207e+08 4.1055e+08  0.37%   6.0   30s
 32966 29016 4.1165e+08 1033   14 4.1207e+08 4.1055e+08  0.37%   6.5   35s
 39133 34225 4.1162e+08  536   14 4.1207e+08 4.1055e+08  0.37%   6.2   40s
H39976 34997                    4.120385e+08 4.1055e+08  0.36%   6.2   40s
H46713 41547                    4.119877e+08 4.1055e+08  0.35%   6.0   44s
 46790 41608 4.1126e+08 1675   12 4.1199e+08 4.1055e+08  0.35%   6.0   45s
H48417 43184                    4.119789e+08 4.1055e+08  0.35%   6.0   46s
 51548 46225 4.1117e+08  652   12 4.1198e+08 4.1055e+08  0.35%   6.2   50s
H54512 48912                    4.119712e+08 4.1055e+08  0.34%   6.2   52s
 57525 51824 4.1147e+08 1646    8 4.1197e+08 4.1055e+08  0.34%   6.2   55s
 64027 58131 4.1060e+08  833   12 4.1197e+08 4.1055e+08  0.34%   6.1   60s
H66981 60963                    4.119649e+08 4.1055e+08  0.34%   6.1   62s
 70402 64338 4.1084e+08 1700   14 4.1196e+08 4.1055e+08  0.34%   6.1   65s
H73868 67544                    4.119648e+08 4.1055e+08  0.34%   6.1   68s
 75127 68644 4.1159e+08  714    6 4.1196e+08 4.1055e+08  0.34%   6.3   70s
H78686 71586                    4.118658e+08 4.1055e+08  0.32%   6.2   73s
 81315 74102 4.1138e+08 1014   14 4.1187e+08 4.1055e+08  0.32%   6.2   75s
 87233 79676 4.1110e+08 1530   14 4.1187e+08 4.1055e+08  0.32%   6.1   80s
H89919 58522                    4.114180e+08 4.1055e+08  0.21%   6.1   82s
 93440 61848 4.1098e+08  301   12 4.1142e+08 4.1055e+08  0.21%   6.1   85s
H97199 65107                    4.114179e+08 4.1055e+08  0.21%   6.2   89s
 98522 66403 4.1119e+08 1156   14 4.1142e+08 4.1055e+08  0.21%   6.2   90s
H102626 43610                    4.110068e+08 4.1055e+08  0.11%   6.1   94s
H102778 43762                    4.110059e+08 4.1055e+08  0.11%   6.1   94s
 103477 44411 4.1055e+08  193   17 4.1101e+08 4.1055e+08  0.11%   6.1   95s
 108358 48860 4.1090e+08 1193   14 4.1101e+08 4.1055e+08  0.11%   6.1  100s
 114441 54800 4.1080e+08  881   13 4.1101e+08 4.1055e+08  0.11%   6.0  105s
 118631 58783 4.1089e+08  486   12 4.1101e+08 4.1055e+08  0.11%   6.0  110s
 122513 62309 infeasible 1269      4.1101e+08 4.1055e+08  0.11%   6.0  115s
 128662 68291 4.1093e+08  549   13 4.1101e+08 4.1055e+08  0.11%   5.9  120s
H129833 69426                    4.110042e+08 4.1055e+08  0.11%   5.8  121s
 134083 73430     cutoff  337      4.1100e+08 4.1055e+08  0.11%   5.8  125s
H137134 68986                    4.109589e+08 4.1055e+08  0.10%   5.8  127s
 139106 70190 4.1060e+08  443   13 4.1096e+08 4.1055e+08  0.10%   5.8  130s
H141396 72360                    4.109456e+08 4.1055e+08  0.10%   5.8  132s
 142815 73634 4.1065e+08 1052    4 4.1095e+08 4.1055e+08  0.10%   5.8  135s
 147908 78553 4.1083e+08 1183   13 4.1095e+08 4.1055e+08  0.10%   5.8  140s
H151538 74356                    4.109131e+08 4.1055e+08  0.09%   5.8  143s
 153046 75833 4.1090e+08 1543   12 4.1091e+08 4.1055e+08  0.09%   5.8  145s
 157446 80055 4.1055e+08  123   16 4.1091e+08 4.1055e+08  0.09%   5.8  150s
 163659 86015 4.1055e+08  104   16 4.1091e+08 4.1055e+08  0.09%   5.7  155s
H163899 86253                    4.109128e+08 4.1055e+08  0.09%   5.7  155s
 167956 90003 4.1058e+08  571   15 4.1091e+08 4.1055e+08  0.09%   5.7  160s
 172833 94659 4.1074e+08 1147   12 4.1091e+08 4.1055e+08  0.09%   5.7  165s
 178414 99457 4.1091e+08  501   12 4.1091e+08 4.1055e+08  0.09%   5.7  170s
 180867 101798 4.1091e+08  895   13 4.1091e+08 4.1055e+08  0.09%   5.8  175s
 185803 106020 4.1055e+08  110   18 4.1091e+08 4.1055e+08  0.09%   5.8  180s
 191399 111318 4.1091e+08  673   16 4.1091e+08 4.1055e+08  0.09%   5.7  185s
 195686 114885 4.1091e+08 1123   14 4.1091e+08 4.1055e+08  0.09%   5.7  190s
 202361 120406 4.1089e+08 1122   13 4.1091e+08 4.1055e+08  0.09%   5.6  195s
 207093 124834 4.1091e+08  588   13 4.1091e+08 4.1055e+08  0.09%   5.7  200s
 211349 128787 4.1058e+08 1115   13 4.1091e+08 4.1055e+08  0.09%   5.7  205s
 216150 133468 4.1072e+08  998   13 4.1091e+08 4.1055e+08  0.09%   5.7  210s
 222032 139003 4.1059e+08  890   14 4.1091e+08 4.1055e+08  0.09%   5.6  215s
H222533 126648                    4.109048e+08 4.1055e+08  0.09%   5.7  215s
 226301 130277 4.1055e+08  380   17 4.1090e+08 4.1055e+08  0.09%   5.7  220s
 231284 135042 4.1060e+08  513   15 4.1090e+08 4.1055e+08  0.09%   5.7  225s
 236457 140008 4.1078e+08  838   13 4.1090e+08 4.1055e+08  0.09%   5.7  230s
H236583 123699                    4.108407e+08 4.1055e+08  0.07%   5.7  230s
 240911 127619 4.1055e+08  389   18 4.1084e+08 4.1055e+08  0.07%   5.7  235s
H242817 129498                    4.108404e+08 4.1055e+08  0.07%   5.6  237s
 245222 131565 4.1055e+08  311   17 4.1084e+08 4.1055e+08  0.07%   5.6  240s
H247888 130340                    4.108149e+08 4.1055e+08  0.06%   5.6  241s
 254140 136391 4.1055e+08  212   15 4.1081e+08 4.1055e+08  0.06%   5.5  245s
 260890 142108 4.1079e+08  617   12 4.1081e+08 4.1055e+08  0.06%   5.6  250s
 267313 148242 4.1058e+08  932   11 4.1081e+08 4.1055e+08  0.06%   5.6  255s
H273243 153948                    4.108147e+08 4.1055e+08  0.06%   5.6  258s
 276759 157328 4.1055e+08  261   18 4.1081e+08 4.1055e+08  0.06%   5.5  260s
 286026 165474 4.1055e+08   53   24 4.1081e+08 4.1055e+08  0.06%   5.5  265s
 293747 172671 4.1081e+08  910   14 4.1081e+08 4.1055e+08  0.06%   5.4  270s
 303054 180804 4.1056e+08  837   14 4.1081e+08 4.1055e+08  0.06%   5.4  275s
H306128 178397                    4.108055e+08 4.1055e+08  0.06%   5.4  276s
H310196 182143                    4.108035e+08 4.1055e+08  0.06%   5.4  279s
 310788 182733 4.1078e+08  346   13 4.1080e+08 4.1055e+08  0.06%   5.4  280s
 317214 188808 4.1071e+08  471   13 4.1080e+08 4.1055e+08  0.06%   5.4  285s
 326402 197439 4.1077e+08  172   14 4.1080e+08 4.1055e+08  0.06%   5.4  290s
 331541 201938 4.1079e+08  698   13 4.1080e+08 4.1055e+08  0.06%   5.4  295s
 339977 209969 4.1055e+08   45   16 4.1080e+08 4.1055e+08  0.06%   5.4  300s
 346956 216125 4.1055e+08  287   14 4.1080e+08 4.1055e+08  0.06%   5.4  305s
H353591 214271                    4.107994e+08 4.1055e+08  0.06%   5.3  308s
 356926 217162 4.1055e+08  158   16 4.1080e+08 4.1055e+08  0.06%   5.3  310s
 365635 225469 4.1061e+08  880   14 4.1080e+08 4.1055e+08  0.06%   5.3  315s
 372014 231383 4.1080e+08 1033   12 4.1080e+08 4.1055e+08  0.06%   5.3  320s
 378041 236978 4.1069e+08  546   11 4.1080e+08 4.1055e+08  0.06%   5.4  325s
 386048 244420 4.1061e+08  803   13 4.1080e+08 4.1055e+08  0.06%   5.3  330s
H386777 240871                    4.107953e+08 4.1055e+08  0.06%   5.3  330s
 395691 249234 4.1067e+08  772   14 4.1080e+08 4.1055e+08  0.06%   5.3  335s
 404940 256640 4.1077e+08 1436   14 4.1080e+08 4.1055e+08  0.06%   5.3  340s
H405654 201046                    4.107135e+08 4.1055e+08  0.04%   5.3  340s
 412284 207457 infeasible 1018      4.1071e+08 4.1055e+08  0.04%   5.3  345s
H418014 203273                    4.107002e+08 4.1055e+08  0.04%   5.3  349s
 419060 203834 4.1055e+08  326   18 4.1070e+08 4.1055e+08  0.04%   5.3  350s
 428530 212438 4.1066e+08  543   16 4.1070e+08 4.1055e+08  0.04%   5.2  355s
 435949 219406 4.1060e+08  481   15 4.1070e+08 4.1055e+08  0.04%   5.3  360s
 444358 227506 4.1064e+08 1037   10 4.1070e+08 4.1055e+08  0.04%   5.2  365s
 453268 236061 4.1065e+08 1131   14 4.1070e+08 4.1055e+08  0.04%   5.2  370s
 460101 241898 4.1063e+08  625   14 4.1070e+08 4.1055e+08  0.04%   5.3  375s
 468677 250039 4.1066e+08  446   14 4.1070e+08 4.1055e+08  0.04%   5.2  380s
 475569 255557 4.1055e+08  219   18 4.1070e+08 4.1055e+08  0.04%   5.3  385s
 484278 264028 4.1061e+08 1185   12 4.1070e+08 4.1055e+08  0.04%   5.2  390s
 492815 271265 4.1055e+08  280   15 4.1070e+08 4.1055e+08  0.04%   5.2  395s
 502485 280680 4.1065e+08  245   14 4.1070e+08 4.1055e+08  0.04%   5.2  400s
 509347 286443 4.1055e+08  128   15 4.1070e+08 4.1055e+08  0.04%   5.2  405s
 516820 293607 4.1069e+08  614   14 4.1070e+08 4.1055e+08  0.04%   5.2  410s
 525352 301353 4.1062e+08  261   13 4.1070e+08 4.1055e+08  0.04%   5.2  415s
H526796 302781                    4.106999e+08 4.1055e+08  0.04%   5.2  416s
 533698 308868 4.1055e+08  189   14 4.1070e+08 4.1055e+08  0.04%   5.2  420s
 542009 316169 4.1064e+08  677   13 4.1070e+08 4.1055e+08  0.04%   5.2  425s
 549465 323367 4.1061e+08  896   12 4.1070e+08 4.1055e+08  0.04%   5.2  430s
 557119 330097 4.1061e+08  558   14 4.1070e+08 4.1055e+08  0.04%   5.2  435s
 566497 338778 4.1055e+08  349   18 4.1070e+08 4.1055e+08  0.04%   5.1  440s
 572755 344272 4.1067e+08  858   14 4.1070e+08 4.1055e+08  0.04%   5.2  445s
 580810 352112 4.1069e+08 1251   14 4.1070e+08 4.1055e+08  0.04%   5.1  450s
 587313 357698 infeasible  824      4.1070e+08 4.1055e+08  0.04%   5.2  455s
 595417 365368 4.1060e+08 1489   14 4.1070e+08 4.1055e+08  0.04%   5.1  460s
 603518 372910 infeasible  622      4.1070e+08 4.1055e+08  0.04%   5.1  465s
 611954 380999 4.1058e+08  634   15 4.1070e+08 4.1055e+08  0.04%   5.1  470s
 619690 388368 4.1057e+08 1177   14 4.1070e+08 4.1055e+08  0.04%   5.1  475s
 628768 397130 4.1070e+08  984   14 4.1070e+08 4.1055e+08  0.04%   5.1  480s
 637083 404786 4.1070e+08  337   16 4.1070e+08 4.1055e+08  0.04%   5.1  485s
 644999 412388 4.1068e+08 1107   13 4.1070e+08 4.1055e+08  0.04%   5.1  490s
 653788 420158 4.1064e+08  605   13 4.1070e+08 4.1055e+08  0.04%   5.1  495s
 657785 423709 4.1061e+08  518   13 4.1070e+08 4.1055e+08  0.04%   5.1  500s
H660322 415088                    4.106969e+08 4.1055e+08  0.03%   5.1  501s
 665805 420205 4.1060e+08  609   14 4.1070e+08 4.1055e+08  0.03%   5.1  505s
 674957 428956 4.1055e+08  305   16 4.1070e+08 4.1055e+08  0.03%   5.1  510s
 681646 434768 4.1061e+08  634   13 4.1070e+08 4.1055e+08  0.03%   5.1  515s
 689071 442000 4.1067e+08  922   14 4.1070e+08 4.1055e+08  0.03%   5.1  520s
 697739 449599 4.1068e+08  759   14 4.1070e+08 4.1055e+08  0.03%   5.1  525s
 704678 455978 4.1063e+08 1178   12 4.1070e+08 4.1055e+08  0.03%   5.1  530s
 712244 462984 4.1061e+08 1136   14 4.1070e+08 4.1055e+08  0.03%   5.1  535s
 717673 468042 4.1069e+08  513   15 4.1070e+08 4.1055e+08  0.03%   5.1  540s
 726279 476235 4.1055e+08  188   18 4.1070e+08 4.1055e+08  0.03%   5.1  545s
 733130 482281 4.1059e+08  866   13 4.1070e+08 4.1055e+08  0.03%   5.1  550s
 739908 488561 4.1060e+08  604   16 4.1070e+08 4.1055e+08  0.03%   5.1  555s
 747750 496148 4.1063e+08  721   14 4.1070e+08 4.1055e+08  0.03%   5.1  560s
 753948 501794 4.1065e+08 1239   14 4.1070e+08 4.1055e+08  0.03%   5.1  565s
 763127 510391 4.1055e+08  468   16 4.1070e+08 4.1055e+08  0.03%   5.1  570s
 771306 517955 4.1062e+08 1399   14 4.1070e+08 4.1055e+08  0.03%   5.1  575s
 778268 524476 4.1055e+08  386   16 4.1070e+08 4.1055e+08  0.03%   5.1  580s
 787644 533270 4.1066e+08 1058   14 4.1070e+08 4.1055e+08  0.03%   5.0  585s
H791969 536126                    4.106961e+08 4.1055e+08  0.03%   5.0  587s
H793936 532709                    4.106936e+08 4.1055e+08  0.03%   5.0  589s
 795560 534282 4.1067e+08  417   13 4.1069e+08 4.1055e+08  0.03%   5.0  590s
 803678 541782 4.1055e+08  382   16 4.1069e+08 4.1055e+08  0.03%   5.0  595s
H806384 539633                    4.106923e+08 4.1055e+08  0.03%   5.0  597s
 809834 542846 4.1059e+08  763   14 4.1069e+08 4.1055e+08  0.03%   5.0  600s
 818447 551121 4.1062e+08  998   10 4.1069e+08 4.1055e+08  0.03%   5.0  605s
 827010 558453 4.1068e+08 1536   14 4.1069e+08 4.1055e+08  0.03%   5.0  610s
 834701 565469 4.1068e+08  423   13 4.1069e+08 4.1055e+08  0.03%   5.0  615s
 840492 570458 4.1057e+08  474   14 4.1069e+08 4.1055e+08  0.03%   5.0  620s
 845664 575361 4.1066e+08 1284   14 4.1069e+08 4.1055e+08  0.03%   5.0  625s
 852280 581603     cutoff  191      4.1069e+08 4.1055e+08  0.03%   5.0  630s
 858001 586599 4.1063e+08  606   16 4.1069e+08 4.1055e+08  0.03%   5.0  635s
 864273 592597 4.1065e+08 1169   13 4.1069e+08 4.1055e+08  0.03%   5.0  640s
 869385 597160 4.1055e+08  408   18 4.1069e+08 4.1055e+08  0.03%   5.0  645s
 875559 602874 4.1055e+08  297   16 4.1069e+08 4.1055e+08  0.03%   5.0  650s
H883621 594057                    4.106880e+08 4.1055e+08  0.03%   5.0  655s
 893312 603287 4.1062e+08  871   14 4.1069e+08 4.1055e+08  0.03%   5.0  660s
 902100 610950 4.1055e+08  371   15 4.1069e+08 4.1055e+08  0.03%   5.0  665s
 909851 618009 4.1058e+08  469   15 4.1069e+08 4.1055e+08  0.03%   5.0  670s
H912673 618957                    4.106870e+08 4.1055e+08  0.03%   5.0  672s
 916248 621877 4.1062e+08  564   13 4.1069e+08 4.1055e+08  0.03%   5.0  675s
 919231 624418 4.1060e+08  590   15 4.1069e+08 4.1055e+08  0.03%   5.0  680s
 925540 630385 4.1055e+08  374   15 4.1069e+08 4.1055e+08  0.03%   5.0  685s
 929730 634411 4.1055e+08  352   16 4.1069e+08 4.1055e+08  0.03%   5.0  690s
 933621 637976 4.1057e+08  685   14 4.1069e+08 4.1055e+08  0.03%   5.0  695s
 940458 643734 4.1055e+08  124   16 4.1069e+08 4.1055e+08  0.03%   5.0  700s
 947593 650638 4.1065e+08  762   14 4.1069e+08 4.1055e+08  0.03%   5.0  705s
 953278 655664 4.1065e+08  967   14 4.1069e+08 4.1055e+08  0.03%   5.0  710s
 960382 662482 4.1057e+08  453   15 4.1069e+08 4.1055e+08  0.03%   5.0  715s
 966123 667449 4.1069e+08  542   12 4.1069e+08 4.1055e+08  0.03%   4.9  720s
 971665 672802 4.1065e+08 1486   12 4.1069e+08 4.1055e+08  0.03%   5.0  725s
 977911 678595 4.1055e+08  291   17 4.1069e+08 4.1055e+08  0.03%   4.9  730s
 985454 685732 4.1055e+08  274   16 4.1069e+08 4.1055e+08  0.03%   4.9  735s
 990020 689405 infeasible  950      4.1069e+08 4.1055e+08  0.03%   4.9  740s
 996853 695121 4.1055e+08  303   16 4.1069e+08 4.1055e+08  0.03%   4.9  745s
 1002799 700517 4.1057e+08 1246   12 4.1069e+08 4.1055e+08  0.03%   4.9  750s
 1009482 706247 4.1063e+08  914   13 4.1069e+08 4.1055e+08  0.03%   4.9  755s
 1016665 712254 4.1055e+08  312   17 4.1069e+08 4.1055e+08  0.03%   4.9  760s
 1022885 717384 4.1063e+08  505   16 4.1069e+08 4.1055e+08  0.03%   4.9  765s
 1028224 722203 4.1067e+08  895   13 4.1069e+08 4.1055e+08  0.03%   4.9  770s
 1035636 729313 4.1065e+08 1537   13 4.1069e+08 4.1055e+08  0.03%   4.9  775s
 1041489 733856 4.1062e+08 1011   11 4.1069e+08 4.1055e+08  0.03%   4.9  780s
 1047609 739756 4.1064e+08 1285   13 4.1069e+08 4.1055e+08  0.03%   4.9  785s
 1054858 746511 4.1061e+08  495   14 4.1069e+08 4.1055e+08  0.03%   4.9  790s
 1062046 752150 4.1056e+08  838   13 4.1069e+08 4.1055e+08  0.03%   4.9  795s
 1067279 757119 4.1055e+08  356   18 4.1069e+08 4.1055e+08  0.03%   4.9  800s
 1074814 764127 4.1057e+08  765   15 4.1069e+08 4.1055e+08  0.03%   4.8  805s
 1080103 769103 4.1058e+08  897   13 4.1069e+08 4.1055e+08  0.03%   4.8  810s
 1085818 774559 4.1057e+08  864   10 4.1069e+08 4.1055e+08  0.03%   4.8  815s
 1090112 778214 4.1069e+08  675   11 4.1069e+08 4.1055e+08  0.03%   4.8  820s
 1094672 782299 4.1059e+08 1055   13 4.1069e+08 4.1055e+08  0.03%   4.8  825s
 1101482 788832 4.1061e+08 1023   12 4.1069e+08 4.1055e+08  0.03%   4.8  830s
 1106551 793654 4.1067e+08  457   13 4.1069e+08 4.1055e+08  0.03%   4.8  835s
 1110131 796285 4.1067e+08  769   13 4.1069e+08 4.1055e+08  0.03%   4.9  840s
 1115861 801824 4.1061e+08 1234   11 4.1069e+08 4.1055e+08  0.03%   4.8  845s
 1122544 808080 4.1067e+08  376   13 4.1069e+08 4.1055e+08  0.03%   4.8  850s
 1125855 810554 4.1063e+08  792   14 4.1069e+08 4.1055e+08  0.03%   4.9  855s
 1130232 814658 4.1063e+08 1006   13 4.1069e+08 4.1055e+08  0.03%   4.9  860s
 1136548 820719 4.1055e+08  375   16 4.1069e+08 4.1055e+08  0.03%   4.8  865s
 1141628 825238 4.1060e+08  672   16 4.1069e+08 4.1055e+08  0.03%   4.9  870s
 1148486 831813 4.1057e+08  938   14 4.1069e+08 4.1055e+08  0.03%   4.8  875s
 1152488 835568 4.1055e+08  222   17 4.1069e+08 4.1055e+08  0.03%   4.8  880s
 1159518 842047 4.1067e+08  408   12 4.1069e+08 4.1055e+08  0.03%   4.8  885s
 1165624 847015 4.1067e+08  532   11 4.1069e+08 4.1055e+08  0.03%   4.8  890s
 1169811 850856 4.1060e+08 1183   10 4.1069e+08 4.1055e+08  0.03%   4.8  895s
 1176720 857408 4.1055e+08  193   16 4.1069e+08 4.1055e+08  0.03%   4.8  900s
 1182605 862347 4.1056e+08  441   16 4.1069e+08 4.1055e+08  0.03%   4.8  905s
 1185904 865392 4.1061e+08  849   13 4.1069e+08 4.1055e+08  0.03%   4.8  910s
 1192753 871963 4.1055e+08  246   16 4.1069e+08 4.1055e+08  0.03%   4.8  915s
 1199049 878036 4.1060e+08 1111   13 4.1069e+08 4.1055e+08  0.03%   4.8  920s
 1203285 881528 4.1055e+08  408   16 4.1069e+08 4.1055e+08  0.03%   4.8  925s
 1208539 886576 4.1055e+08   93   15 4.1069e+08 4.1055e+08  0.03%   4.8  930s
 1213693 890915 4.1069e+08  365   13 4.1069e+08 4.1055e+08  0.03%   4.8  935s
 1218676 895088 4.1055e+08  403   17 4.1069e+08 4.1055e+08  0.03%   4.8  940s
 1224325 900260 4.1057e+08  572   15 4.1069e+08 4.1055e+08  0.03%   4.8  945s
 1230736 905628 4.1055e+08  344   17 4.1069e+08 4.1055e+08  0.03%   4.8  950s
 1236715 911399 4.1060e+08  579   15 4.1069e+08 4.1055e+08  0.03%   4.8  955s
 1242964 917427 4.1056e+08  540   15 4.1069e+08 4.1055e+08  0.03%   4.8  960s
 1250187 924245 4.1061e+08  569   14 4.1069e+08 4.1055e+08  0.03%   4.8  965s
 1257183 930836 4.1062e+08 1041   12 4.1069e+08 4.1055e+08  0.03%   4.8  970s
 1262219 935707 4.1064e+08 1311   13 4.1069e+08 4.1055e+08  0.03%   4.8  975s
 1268428 941597 4.1061e+08  754   16 4.1069e+08 4.1055e+08  0.03%   4.8  980s
 1274254 947165 4.1056e+08  151   13 4.1069e+08 4.1055e+08  0.03%   4.8  985s
 1281246 953228 4.1055e+08  248   15 4.1069e+08 4.1055e+08  0.03%   4.8  990s
 1287111 958339 4.1068e+08  487   14 4.1069e+08 4.1055e+08  0.03%   4.8  995s

Cutting planes:
  MIR: 3
  GUB cover: 1

Explored 1292255 nodes (6211061 simplex iterations) in 1000.01 seconds
Thread count was 1 (of 8 available processors)

Time limit reached
Best objective 4.106869950000e+08, best bound 4.105534100000e+08, gap 0.0325%
